certificates/rado_a15_c282_N37.cnf
c Rad2 upper bound instance: x1 + 15*x2 - x3 = 282, interval [1,37]
p cnf 37 184
1 4 19 0
-1 -4 -19 0
1 19 20 0
-1 -19 -20 0
1 21 34 0
-1 -21 -34 0
2 5 19 0
-2 -5 -19 0
2 20 0
-2 -20 0
2 21 35 0
-2 -21 -35 0
3 6 19 0
-3 -6 -19 0
3 20 21 0
-3 -20 -21 0
3 21 36 0
-3 -21 -36 0
4 7 19 0
-4 -7 -19 0
4 20 22 0
-4 -20 -22 0
4 21 37 0
-4 -21 -37 0
5 8 19 0
-5 -8 -19 0
5 20 23 0
-5 -20 -23 0
6 9 19 0
-6 -9 -19 0
6 20 24 0
-6 -20 -24 0
7 10 19 0
-7 -10 -19 0
7 20 25 0
-7 -20 -25 0
8 11 19 0
-8 -11 -19 0
8 20 26 0
-8 -20 -26 0
9 12 19 0
-9 -12 -19 0
9 20 27 0
-9 -20 -27 0
10 13 19 0
-10 -13 -19 0
10 20 28 0
-10 -20 -28 0
11 14 19 0
-11 -14 -19 0
11 20 29 0
-11 -20 -29 0
12 15 19 0
-12 -15 -19 0
12 20 30 0
-12 -20 -30 0
1 13 18 0
-1 -13 -18 0
13 16 19 0
-13 -16 -19 0
13 20 31 0
-13 -20 -31 0
2 14 18 0
-2 -14 -18 0
14 17 19 0
-14 -17 -19 0
14 20 32 0
-14 -20 -32 0
3 15 18 0
-3 -15 -18 0
15 18 19 0
-15 -18 -19 0
15 20 33 0
-15 -20 -33 0
4 16 18 0
-4 -16 -18 0
16 19 0
-16 -19 0
16 20 34 0
-16 -20 -34 0
5 17 18 0
-5 -17 -18 0
17 19 20 0
-17 -19 -20 0
17 20 35 0
-17 -20 -35 0
6 18 0
-6 -18 0
18 19 21 0
-18 -19 -21 0
18 20 36 0
-18 -20 -36 0
7 18 19 0
-7 -18 -19 0
19 22 0
-19 -22 0
19 20 37 0
-19 -20 -37 0
8 18 20 0
-8 -18 -20 0
19 20 23 0
-19 -20 -23 0
9 18 21 0
-9 -18 -21 0
19 21 24 0
-19 -21 -24 0
10 18 22 0
-10 -18 -22 0
19 22 25 0
-19 -22 -25 0
11 18 23 0
-11 -18 -23 0
19 23 26 0
-19 -23 -26 0
12 18 24 0
-12 -18 -24 0
19 24 27 0
-19 -24 -27 0
13 18 25 0
-13 -18 -25 0
19 25 28 0
-19 -25 -28 0
14 18 26 0
-14 -18 -26 0
19 26 29 0
-19 -26 -29 0
15 18 27 0
-15 -18 -27 0
19 27 30 0
-19 -27 -30 0
1 17 28 0
-1 -17 -28 0
16 18 28 0
-16 -18 -28 0
19 28 31 0
-19 -28 -31 0
2 17 29 0
-2 -17 -29 0
17 18 29 0
-17 -18 -29 0
19 29 32 0
-19 -29 -32 0
3 17 30 0
-3 -17 -30 0
18 30 0
-18 -30 0
19 30 33 0
-19 -30 -33 0
4 17 31 0
-4 -17 -31 0
18 19 31 0
-18 -19 -31 0
19 31 34 0
-19 -31 -34 0
5 17 32 0
-5 -17 -32 0
18 20 32 0
-18 -20 -32 0
19 32 35 0
-19 -32 -35 0
6 17 33 0
-6 -17 -33 0
18 21 33 0
-18 -21 -33 0
19 33 36 0
-19 -33 -36 0
7 17 34 0
-7 -17 -34 0
18 22 34 0
-18 -22 -34 0
19 34 37 0
-19 -34 -37 0
8 17 35 0
-8 -17 -35 0
18 23 35 0
-18 -23 -35 0
9 17 36 0
-9 -17 -36 0
18 24 36 0
-18 -24 -36 0
10 17 37 0
-10 -17 -37 0
18 25 37 0
-18 -25 -37 0
