certificates/rado_a15_c282_N37.drat
-34 -35 -37 0
-21 19 -35 -36 -37 0
19 -35 -37 -36 0
d -21 19 -35 -36 -37 0
-35 -36 -37 0
d 19 -35 -37 -36 0
-19 -37 0
20 35 -37 0
-36 -37 0
d -35 -36 -37 0
-20 -37 0
-37 0
19 0
-16 0
-22 0
-20 0
2 0
34 0
4 0
-5 0
-31 0
-1 0
-7 0
23 0
13 0
25 0
-26 0
-10 0
-28 0
-18 0
8 0
14 0
0
